NAME : iia5
COMMENT : 5 ciudades en circunferencia radio 1000
TYPE : TSP
DIMENSION: 5
EDGE_WEIGHT_TYPE : EUC_2D
NODE_COORD_SECTION
1 2000.0 1000.0
2 1309.0169943749474 1951.0565162951534
3 190.98300562505267 1587.7852522924732
4 190.98300562505256 412.21474770752695
5 1309.0169943749472 48.94348370484636
EOF
